NAME : CHINA CITY - jmungur
CAPACITY : 47
NODE_COORD_SECTION 
0 0 0
1 3 2
2 -2 1
3 -2 -2
4 0 3
5 -3 -3
6 3 -1
7 -4 -1
8 3 4
9 -3 0
10 2 1
11 1 3
12 -1 -1
13 -2 3
14 2 -2
15 4 3
DEMAND_SECTION 
0 0
1 18
2 8
3 15
4 25
5 2
6 24
7 5
8 6
9 9
10 13
11 20
12 6
13 2
14 14
15 9
DEPOT_SECTION 
TIME_SECTION
0 1 14
0 2 9
0 3 15
0 4 20
0 5 10
0 6 5
0 7 13
0 8 16
0 9 12
0 10 13
0 11 7
0 12 8
0 13 2
0 14 10
0 15 5
1 2 8
1 3 12
1 4 9
1 5 7
1 6 15
1 7 4
1 8 11
1 9 15
1 10 8
1 11 10
1 12 12
1 13 3
1 14 5
1 15 12
2 0 9
2 1 8
2 3 7
2 4 19
2 5 14
2 6 5
2 7 17
2 8 12
2 9 16
2 10 1
2 11 2
2 12 13
2 13 10
2 14 11
2 15 6
3 4 9
3 5 15
3 6 12
3 7 10
3 8 7
3 9 14
3 10 9
3 11 8
3 12 14
3 13 11
3 14 15
3 15 2
4 5 8
4 6 11
4 7 14
4 8 17
4 9 8
4 10 17
4 11 13
4 12 21
4 13 4
4 14 5
4 15 8
5 6 9
5 7 13
5 8 10
5 9 6
5 10 10
5 11 11
5 12 12
5 13 21
5 14 7
5 15 14
6 7 7
6 8 18
6 9 21
6 10 5
6 11 7
6 12 9
6 13 3
6 14 16
6 15 23
7 8 15
7 9 10
7 10 9
7 11 12
7 12 15
7 13 21
7 14 9
7 15 9
8 9 8
8 10 3
8 11 4
8 12 12
8 13 19
8 14 21
8 15 10
9 10 7
9 11 23
9 12 16
9 13 10
9 14 9
9 15 13
10 11 11
10 12 12
10 13 21
10 14 7
10 15 3
11 12 9
11 13 3
11 14 16
11 15 2
12 13 21
12 14 9
12 15 17
13 14 21
13 15 8
14 15 16